p cnf 174 87
1 2 0
1 37 0
2 67 0
2 53 0
37 53 0
52 67 0
67 68 0
11 52 0
38 52 0
68 79 0
11 65 0
11 32 0
38 73 0
38 45 0
57 65 0
32 69 0
65 69 0
32 51 0
31 32 0
33 45 0
35 45 0
30 31 0
30 45 0
7 69 0
50 51 0
31 54 0
51 54 0
35 36 0
35 46 0
29 30 0
24 30 0
7 66 0
5 7 0
49 50 0
43 50 0
44 54 0
36 75 0
36 72 0
34 46 0
46 47 0
66 78 0
5 6 0
6 66 0
49 60 0
49 55 0
47 74 0
6 21 0
6 22 0
21 22 0
25 60 0
60 61 0
25 26 0
26 55 0
18 55 0
20 21 0
22 23 0
17 18 0
17 26 0
18 19 0
19 20 0
18 39 0
17 27 0
16 17 0
14 19 0
39 77 0
27 70 0
39 70 0
39 40 0
27 58 0
27 62 0
27 56 0
16 76 0
15 16 0
16 48 0
14 41 0
40 41 0
14 71 0
15 28 0
4 15 0
41 42 0
3 59 0
9 59 0
8 9 0
10 12 0
10 63 0
12 13 0
13 64 0
