p cnf 154 77
1 15 0
15 20 0
15 39 0
18 39 0
17 18 0
18 19 0
18 37 0
17 61 0
16 17 0
19 32 0
32 37 0
33 37 0
36 37 0
31 32 0
31 33 0
7 33 0
6 7 0
6 36 0
36 63 0
8 31 0
7 58 0
7 45 0
5 6 0
8 57 0
45 57 0
8 42 0
3 8 0
26 58 0
45 46 0
27 42 0
42 43 0
43 46 0
3 9 0
2 3 0
4 26 0
26 52 0
27 52 0
21 26 0
46 49 0
46 48 0
21 22 0
22 27 0
43 44 0
9 10 0
2 34 0
10 34 0
2 30 0
22 30 0
48 50 0
50 52 0
49 51 0
50 51 0
44 47 0
47 48 0
10 11 0
34 35 0
30 59 0
13 30 0
11 28 0
25 35 0
12 35 0
23 28 0
23 35 0
29 59 0
12 14 0
13 14 0
13 54 0
25 55 0
25 56 0
12 60 0
23 24 0
24 55 0
29 38 0
29 62 0
14 41 0
41 53 0
40 41 0
