p cnf 224 112
1 49 0
1 4 0
1 15 0
1 8 0
15 48 0
48 49 0
15 38 0
7 8 0
7 15 0
3 8 0
48 64 0
38 65 0
38 39 0
38 47 0
47 64 0
47 65 0
7 33 0
33 39 0
2 64 0
34 64 0
42 65 0
39 40 0
40 65 0
44 47 0
17 34 0
26 34 0
41 42 0
42 43 0
43 44 0
14 42 0
40 50 0
41 50 0
28 44 0
44 46 0
18 26 0
26 63 0
6 14 0
6 41 0
11 14 0
11 28 0
11 43 0
14 74 0
6 27 0
27 50 0
28 29 0
29 46 0
28 31 0
45 46 0
45 63 0
20 63 0
5 6 0
10 11 0
10 31 0
5 13 0
10 13 0
13 74 0
5 30 0
27 30 0
25 29 0
25 45 0
29 32 0
31 32 0
31 35 0
9 10 0
9 35 0
13 75 0
30 58 0
30 61 0
58 61 0
19 25 0
24 25 0
24 32 0
35 37 0
35 79 0
9 77 0
12 75 0
12 77 0
58 60 0
55 58 0
52 55 0
52 61 0
52 54 0
54 61 0
37 67 0
37 78 0
37 72 0
23 79 0
12 59 0
54 59 0
59 72 0
16 52 0
36 67 0
57 78 0
59 62 0
62 72 0
57 80 0
72 80 0
57 71 0
71 80 0
56 62 0
53 71 0
53 70 0
70 71 0
51 56 0
53 66 0
69 70 0
22 70 0
51 68 0
66 68 0
51 76 0
73 76 0
21 73 0
