p cnf 132 66
1 41 0
1 6 0
2 41 0
6 7 0
7 41 0
40 41 0
5 6 0
6 15 0
2 42 0
2 8 0
7 8 0
2 18 0
7 14 0
5 13 0
5 48 0
14 45 0
15 45 0
15 16 0
8 9 0
9 18 0
8 29 0
14 29 0
18 34 0
18 19 0
16 17 0
16 35 0
29 35 0
9 10 0
10 19 0
9 30 0
29 30 0
19 20 0
19 24 0
17 33 0
33 35 0
26 35 0
10 25 0
25 26 0
25 30 0
10 11 0
11 20 0
20 21 0
20 22 0
26 27 0
27 33 0
33 36 0
26 37 0
23 25 0
11 44 0
23 44 0
11 12 0
27 28 0
28 36 0
27 32 0
32 37 0
36 43 0
3 37 0
37 38 0
23 46 0
38 46 0
23 39 0
39 44 0
4 32 0
38 47 0
31 38 0
31 39 0
