p cnf 154 77
1 35 0
1 38 0
1 31 0
34 35 0
35 54 0
38 39 0
2 34 0
2 39 0
28 34 0
30 34 0
43 54 0
53 54 0
28 55 0
54 55 0
2 32 0
28 37 0
28 56 0
55 56 0
43 51 0
55 61 0
37 44 0
37 46 0
46 56 0
42 46 0
42 56 0
51 57 0
50 51 0
51 52 0
46 47 0
42 48 0
20 57 0
41 50 0
48 49 0
49 50 0
50 63 0
52 60 0
16 48 0
20 45 0
20 21 0
21 41 0
7 60 0
36 45 0
7 19 0
4 7 0
7 59 0
33 36 0
29 36 0
24 36 0
19 40 0
33 40 0
58 59 0
23 24 0
23 33 0
29 62 0
24 25 0
24 27 0
8 40 0
8 58 0
8 9 0
9 23 0
23 64 0
9 10 0
10 27 0
5 8 0
9 22 0
10 26 0
10 11 0
22 65 0
6 22 0
26 66 0
3 11 0
11 12 0
11 13 0
13 17 0
13 14 0
14 18 0
14 15 0
