p cnf 144 72
1 52 0
1 7 0
1 56 0
56 57 0
2 61 0
44 61 0
3 44 0
3 58 0
3 43 0
3 5 0
3 37 0
58 62 0
42 43 0
20 43 0
43 50 0
23 37 0
37 64 0
42 51 0
31 42 0
42 48 0
19 20 0
19 51 0
20 21 0
49 50 0
50 65 0
9 23 0
21 38 0
23 38 0
31 32 0
32 51 0
31 59 0
30 31 0
19 60 0
21 53 0
21 22 0
10 38 0
18 32 0
18 60 0
18 54 0
53 54 0
17 18 0
33 54 0
17 41 0
16 17 0
33 34 0
28 33 0
15 16 0
15 28 0
16 40 0
34 35 0
34 39 0
28 29 0
29 35 0
14 15 0
15 63 0
35 36 0
11 29 0
14 46 0
29 46 0
13 14 0
14 45 0
27 63 0
11 12 0
12 36 0
36 47 0
11 25 0
46 66 0
24 46 0
12 26 0
4 55 0
6 55 0
8 55 0
