p cnf 154 77
1 2 0
1 43 0
1 47 0
2 10 0
2 3 0
2 23 0
27 43 0
43 44 0
23 26 0
26 47 0
44 46 0
46 47 0
10 61 0
10 24 0
24 27 0
3 4 0
3 31 0
14 23 0
23 30 0
30 31 0
27 28 0
27 45 0
44 45 0
26 42 0
13 14 0
13 26 0
9 24 0
5 24 0
8 31 0
14 19 0
14 15 0
15 30 0
7 30 0
33 45 0
41 42 0
13 18 0
18 19 0
15 50 0
6 15 0
33 52 0
33 60 0
32 33 0
35 41 0
35 52 0
18 25 0
17 18 0
17 35 0
32 36 0
35 36 0
29 32 0
32 40 0
17 58 0
17 37 0
20 36 0
36 53 0
40 57 0
39 40 0
39 57 0
12 37 0
12 53 0
37 54 0
16 37 0
20 34 0
11 12 0
11 20 0
20 21 0
21 39 0
16 49 0
11 59 0
16 59 0
16 56 0
21 22 0
21 55 0
49 51 0
48 49 0
48 51 0
38 48 0
