p cnf 174 87
1 8 0
8 34 0
3 34 0
12 34 0
6 34 0
15 34 0
3 69 0
3 68 0
3 13 0
3 61 0
12 14 0
14 15 0
6 7 0
15 35 0
15 76 0
16 68 0
2 61 0
14 24 0
7 42 0
35 49 0
35 75 0
35 52 0
16 73 0
16 57 0
2 63 0
24 25 0
24 55 0
49 50 0
50 52 0
27 49 0
52 54 0
54 55 0
57 58 0
57 59 0
36 63 0
25 43 0
22 25 0
43 56 0
55 56 0
27 51 0
50 51 0
9 27 0
27 67 0
51 53 0
53 54 0
53 56 0
58 60 0
59 60 0
28 59 0
43 47 0
10 22 0
20 22 0
22 39 0
9 65 0
9 30 0
9 72 0
47 77 0
10 11 0
10 23 0
20 26 0
19 20 0
19 23 0
20 21 0
33 65 0
11 17 0
11 46 0
23 29 0
29 46 0
19 38 0
19 32 0
33 48 0
31 33 0
33 64 0
17 45 0
18 29 0
18 45 0
18 48 0
32 41 0
32 74 0
48 78 0
4 5 0
4 71 0
62 71 0
37 66 0
44 66 0
40 44 0
40 70 0
