p cnf 150 75
1 24 0
24 44 0
12 24 0
23 24 0
44 60 0
15 44 0
12 29 0
11 12 0
12 13 0
23 51 0
23 54 0
15 25 0
15 55 0
28 29 0
29 30 0
29 31 0
11 57 0
10 11 0
10 31 0
10 51 0
13 41 0
25 41 0
13 26 0
26 28 0
13 14 0
51 59 0
6 54 0
2 25 0
25 53 0
28 56 0
19 30 0
26 27 0
27 30 0
30 32 0
31 32 0
31 33 0
9 10 0
9 33 0
18 26 0
6 49 0
6 22 0
9 22 0
43 53 0
33 34 0
20 33 0
9 36 0
49 50 0
38 49 0
22 48 0
48 49 0
22 47 0
47 48 0
20 42 0
36 42 0
20 35 0
20 21 0
36 37 0
37 42 0
37 47 0
37 46 0
38 46 0
17 35 0
35 39 0
35 40 0
37 40 0
39 40 0
3 37 0
46 52 0
45 46 0
3 4 0
3 7 0
3 16 0
4 58 0
4 5 0
4 8 0
