p cnf 138 69
1 2 0
1 11 0
1 52 0
1 16 0
2 12 0
11 12 0
11 49 0
49 52 0
11 19 0
16 17 0
15 16 0
16 32 0
12 13 0
15 50 0
49 50 0
17 33 0
32 33 0
17 21 0
17 56 0
15 31 0
31 32 0
15 55 0
30 32 0
13 57 0
13 20 0
13 14 0
18 50 0
3 50 0
33 39 0
7 21 0
7 8 0
8 56 0
29 30 0
29 31 0
31 54 0
4 55 0
25 30 0
30 53 0
8 34 0
34 39 0
39 44 0
8 35 0
25 26 0
26 29 0
5 29 0
25 28 0
22 25 0
9 53 0
51 53 0
34 43 0
43 44 0
34 38 0
44 47 0
26 27 0
6 26 0
9 10 0
10 22 0
22 23 0
9 24 0
45 51 0
37 43 0
41 47 0
42 47 0
10 36 0
45 46 0
41 48 0
45 48 0
46 48 0
40 41 0
