p cnf 138 69
1 36 0
1 21 0
1 7 0
21 49 0
21 25 0
7 8 0
8 21 0
7 42 0
6 7 0
8 9 0
9 49 0
9 48 0
48 49 0
46 48 0
46 49 0
16 49 0
12 25 0
8 43 0
42 43 0
41 42 0
30 42 0
9 44 0
43 44 0
24 46 0
24 48 0
16 47 0
46 47 0
20 30 0
20 43 0
29 30 0
23 30 0
15 20 0
15 44 0
24 40 0
40 44 0
24 37 0
47 50 0
2 20 0
23 35 0
2 19 0
19 23 0
22 23 0
2 3 0
3 15 0
15 45 0
39 40 0
39 45 0
32 40 0
10 32 0
10 37 0
33 35 0
34 35 0
18 19 0
18 35 0
3 14 0
14 19 0
26 39 0
31 32 0
31 39 0
4 32 0
5 10 0
17 18 0
13 14 0
13 18 0
14 38 0
26 38 0
11 31 0
28 31 0
27 28 0
