p cnf 204 102
1 4 0
4 76 0
4 5 0
4 79 0
4 48 0
40 76 0
53 79 0
11 48 0
40 46 0
24 40 0
53 57 0
53 54 0
10 11 0
11 12 0
42 46 0
43 46 0
24 25 0
24 39 0
24 80 0
52 57 0
42 56 0
56 57 0
9 10 0
10 62 0
43 44 0
25 26 0
25 84 0
35 39 0
38 39 0
23 80 0
41 44 0
41 56 0
9 73 0
9 22 0
22 23 0
9 78 0
27 62 0
61 62 0
44 66 0
26 36 0
36 66 0
38 83 0
23 82 0
73 74 0
22 31 0
21 61 0
21 78 0
18 61 0
66 87 0
36 37 0
8 74 0
31 81 0
31 58 0
8 51 0
21 51 0
18 20 0
16 18 0
8 75 0
7 75 0
7 81 0
15 16 0
15 51 0
7 32 0
32 51 0
20 50 0
19 20 0
16 17 0
17 50 0
6 7 0
14 15 0
14 17 0
32 33 0
19 30 0
30 50 0
13 14 0
13 33 0
33 71 0
29 30 0
13 34 0
71 89 0
49 71 0
28 29 0
28 34 0
29 47 0
34 63 0
49 86 0
28 77 0
28 64 0
63 64 0
63 69 0
45 69 0
69 70 0
45 85 0
70 90 0
70 88 0
2 3 0
3 65 0
3 59 0
55 60 0
55 68 0
55 72 0
67 68 0
