p cnf 150 75
1 33 0
1 18 0
1 5 0
33 51 0
18 19 0
19 33 0
30 33 0
5 6 0
6 18 0
4 5 0
5 32 0
41 51 0
19 49 0
19 20 0
20 34 0
30 34 0
29 30 0
29 41 0
6 17 0
6 7 0
4 53 0
4 46 0
4 54 0
41 54 0
32 59 0
32 60 0
31 32 0
41 47 0
9 20 0
20 21 0
26 34 0
29 42 0
34 42 0
37 53 0
3 46 0
43 46 0
35 46 0
42 44 0
44 47 0
14 47 0
43 55 0
47 55 0
21 58 0
21 22 0
25 26 0
25 42 0
22 24 0
24 26 0
2 3 0
3 12 0
12 35 0
3 13 0
13 14 0
13 43 0
35 36 0
28 44 0
14 15 0
15 44 0
14 38 0
10 22 0
8 22 0
23 25 0
11 12 0
28 56 0
15 16 0
16 28 0
15 39 0
38 39 0
11 50 0
45 56 0
27 39 0
39 40 0
50 57 0
48 50 0
48 52 0
