p cnf 182 91
1 18 0
1 44 0
1 14 0
1 2 0
14 17 0
17 18 0
18 32 0
14 49 0
44 49 0
36 44 0
14 52 0
2 55 0
2 15 0
15 55 0
17 31 0
31 32 0
15 28 0
28 32 0
32 39 0
35 36 0
35 49 0
36 62 0
8 36 0
21 52 0
13 52 0
50 52 0
3 55 0
3 62 0
37 55 0
21 54 0
31 54 0
31 38 0
35 53 0
50 53 0
7 8 0
7 35 0
3 61 0
61 62 0
8 58 0
8 56 0
56 61 0
13 20 0
20 21 0
13 60 0
50 60 0
12 13 0
3 9 0
3 16 0
20 24 0
24 54 0
54 64 0
25 53 0
25 60 0
53 59 0
7 42 0
7 51 0
51 59 0
9 57 0
56 57 0
57 58 0
43 58 0
12 19 0
19 20 0
12 47 0
47 60 0
11 12 0
9 10 0
4 9 0
19 30 0
24 30 0
23 24 0
25 34 0
34 47 0
25 26 0
26 59 0
6 26 0
6 51 0
48 51 0
29 30 0
23 40 0
30 40 0
23 41 0
22 23 0
26 45 0
34 45 0
34 63 0
6 27 0
5 6 0
5 45 0
40 46 0
33 63 0
