p cnf 134 67
1 13 0
13 52 0
13 53 0
38 52 0
12 53 0
2 38 0
35 38 0
12 50 0
12 20 0
12 46 0
2 57 0
2 39 0
11 50 0
24 46 0
22 39 0
11 43 0
11 21 0
24 37 0
43 44 0
43 45 0
16 43 0
37 47 0
41 45 0
26 41 0
26 47 0
15 41 0
40 41 0
9 15 0
14 15 0
40 42 0
9 25 0
9 32 0
14 61 0
25 33 0
32 33 0
17 25 0
5 25 0
5 48 0
25 48 0
30 32 0
33 34 0
17 18 0
17 54 0
5 51 0
5 6 0
5 23 0
48 63 0
30 60 0
8 54 0
4 51 0
6 10 0
6 7 0
8 55 0
4 19 0
3 4 0
7 49 0
28 55 0
3 56 0
49 58 0
49 62 0
27 28 0
27 29 0
28 29 0
27 36 0
29 36 0
36 56 0
31 59 0
