p cnf 198 99
1 20 0
20 33 0
11 20 0
20 31 0
19 33 0
33 76 0
33 51 0
10 11 0
11 21 0
11 55 0
31 66 0
31 75 0
18 19 0
15 19 0
19 32 0
32 76 0
50 51 0
51 79 0
21 78 0
6 21 0
54 55 0
43 66 0
12 54 0
12 66 0
39 66 0
39 75 0
15 25 0
15 16 0
32 47 0
49 50 0
48 49 0
48 50 0
2 6 0
6 67 0
6 22 0
12 35 0
35 43 0
43 46 0
38 39 0
38 43 0
12 77 0
37 39 0
37 48 0
16 41 0
37 41 0
41 49 0
2 3 0
2 7 0
7 77 0
67 81 0
67 68 0
7 36 0
35 36 0
13 35 0
13 46 0
46 74 0
4 46 0
37 42 0
38 42 0
30 38 0
40 41 0
40 42 0
7 52 0
68 80 0
23 36 0
23 52 0
8 13 0
8 36 0
4 5 0
5 13 0
28 40 0
28 74 0
30 69 0
69 74 0
72 74 0
4 44 0
26 42 0
40 57 0
52 53 0
8 9 0
8 24 0
5 14 0
17 28 0
28 45 0
29 72 0
26 70 0
34 57 0
56 57 0
70 71 0
56 60 0
56 61 0
27 71 0
58 60 0
60 64 0
58 59 0
58 63 0
63 65 0
62 63 0
73 82 0
