p cnf 152 76
1 2 0
1 36 0
1 44 0
2 3 0
2 4 0
17 44 0
4 18 0
18 44 0
44 45 0
4 56 0
45 56 0
17 35 0
13 17 0
13 45 0
16 17 0
18 59 0
45 46 0
5 46 0
5 56 0
13 49 0
12 13 0
12 16 0
16 25 0
15 16 0
46 48 0
24 46 0
24 49 0
5 6 0
24 52 0
49 52 0
11 12 0
11 15 0
12 51 0
25 58 0
25 27 0
25 39 0
14 15 0
24 47 0
52 53 0
10 11 0
10 14 0
11 22 0
50 51 0
50 53 0
22 23 0
23 51 0
23 53 0
33 58 0
14 41 0
27 41 0
27 40 0
40 41 0
28 39 0
20 39 0
29 39 0
8 14 0
9 10 0
10 21 0
21 22 0
22 38 0
50 60 0
23 26 0
33 34 0
7 41 0
29 42 0
40 42 0
32 40 0
29 43 0
42 43 0
21 57 0
21 37 0
30 42 0
32 55 0
19 43 0
31 43 0
30 54 0
