p cnf 166 83
1 53 0
1 54 0
1 47 0
1 6 0
45 53 0
46 53 0
2 45 0
2 54 0
54 75 0
47 49 0
6 25 0
6 67 0
46 51 0
2 3 0
2 7 0
2 40 0
27 49 0
27 48 0
48 49 0
25 26 0
26 27 0
25 30 0
24 25 0
67 68 0
44 51 0
3 50 0
3 52 0
3 29 0
7 39 0
7 8 0
27 32 0
28 48 0
26 72 0
30 33 0
32 33 0
21 30 0
15 30 0
24 38 0
23 24 0
8 42 0
39 42 0
32 71 0
17 21 0
20 21 0
14 15 0
15 31 0
15 16 0
23 74 0
19 20 0
19 23 0
23 37 0
17 65 0
17 18 0
16 64 0
17 64 0
20 35 0
16 36 0
13 19 0
19 22 0
22 35 0
35 73 0
34 35 0
36 70 0
13 69 0
4 66 0
5 66 0
5 61 0
9 10 0
10 41 0
10 58 0
10 59 0
11 58 0
58 62 0
56 59 0
11 57 0
11 12 0
43 56 0
43 57 0
43 62 0
55 56 0
43 76 0
55 63 0
60 63 0
