p cnf 182 91
1 69 0
1 7 0
1 8 0
8 9 0
8 67 0
8 47 0
9 26 0
26 47 0
9 27 0
9 54 0
27 35 0
35 67 0
15 47 0
26 49 0
49 54 0
15 16 0
16 26 0
27 36 0
36 54 0
21 27 0
10 54 0
20 21 0
20 35 0
14 15 0
15 46 0
49 55 0
21 53 0
36 53 0
21 28 0
10 33 0
10 11 0
10 37 0
19 20 0
20 48 0
28 48 0
28 51 0
51 53 0
22 33 0
22 53 0
28 29 0
11 34 0
33 34 0
11 12 0
11 38 0
37 38 0
17 37 0
29 44 0
44 48 0
51 66 0
22 65 0
22 23 0
23 34 0
2 29 0
29 52 0
52 66 0
12 30 0
30 34 0
12 18 0
12 63 0
38 57 0
43 44 0
44 68 0
50 65 0
23 39 0
39 50 0
23 24 0
24 30 0
45 50 0
45 52 0
52 56 0
63 64 0
24 31 0
31 39 0
39 40 0
24 25 0
3 45 0
45 59 0
31 41 0
31 32 0
32 40 0
40 58 0
58 59 0
40 60 0
32 42 0
5 32 0
4 5 0
4 60 0
60 62 0
5 13 0
5 6 0
61 62 0
