p cnf 180 90
1 27 0
27 50 0
27 28 0
27 62 0
50 63 0
28 81 0
28 29 0
26 62 0
62 80 0
44 63 0
44 45 0
45 63 0
29 76 0
29 39 0
29 40 0
18 26 0
44 46 0
45 69 0
75 76 0
38 39 0
24 39 0
40 41 0
3 40 0
18 49 0
18 51 0
4 18 0
46 57 0
11 69 0
11 12 0
12 38 0
23 38 0
49 65 0
25 51 0
57 64 0
10 11 0
10 65 0
11 32 0
12 61 0
12 71 0
56 64 0
10 66 0
10 70 0
32 33 0
33 71 0
32 59 0
33 52 0
52 61 0
5 61 0
2 56 0
66 68 0
30 33 0
58 59 0
47 59 0
5 13 0
5 77 0
30 73 0
7 30 0
47 67 0
47 48 0
13 22 0
37 73 0
7 21 0
6 7 0
22 34 0
21 53 0
22 53 0
37 74 0
37 43 0
6 72 0
37 72 0
20 21 0
21 31 0
31 34 0
6 42 0
20 42 0
53 79 0
14 74 0
20 36 0
31 36 0
16 20 0
8 31 0
14 15 0
15 42 0
9 36 0
35 36 0
16 17 0
16 19 0
15 78 0
54 60 0
55 60 0
