p cnf 206 103
1 21 0
1 78 0
1 55 0
12 21 0
21 22 0
20 55 0
22 54 0
54 55 0
38 55 0
11 12 0
12 13 0
13 22 0
12 39 0
20 82 0
20 23 0
54 73 0
37 38 0
23 45 0
38 45 0
38 88 0
11 25 0
10 11 0
13 14 0
13 70 0
39 44 0
31 39 0
39 87 0
23 75 0
6 23 0
51 73 0
37 65 0
37 43 0
43 45 0
36 37 0
9 10 0
6 67 0
10 67 0
10 46 0
14 69 0
14 53 0
14 42 0
47 70 0
15 75 0
6 81 0
51 93 0
51 77 0
48 65 0
43 76 0
43 62 0
36 58 0
9 30 0
8 9 0
53 57 0
53 71 0
53 72 0
34 42 0
42 83 0
15 60 0
60 62 0
8 68 0
15 68 0
50 72 0
50 77 0
48 49 0
48 91 0
61 62 0
61 76 0
7 8 0
8 16 0
49 52 0
52 57 0
24 71 0
28 60 0
60 63 0
50 92 0
49 90 0
59 61 0
5 61 0
35 52 0
52 56 0
26 28 0
18 28 0
26 74 0
63 74 0
63 64 0
5 66 0
4 5 0
5 29 0
17 18 0
17 26 0
26 27 0
4 19 0
18 19 0
19 29 0
18 40 0
29 85 0
19 94 0
40 41 0
40 84 0
2 79 0
3 80 0
32 89 0
33 86 0
