p cnf 144 72
1 12 0
12 20 0
11 12 0
12 28 0
11 19 0
19 20 0
20 36 0
20 21 0
10 11 0
11 27 0
27 28 0
28 42 0
28 29 0
18 19 0
19 50 0
10 49 0
18 49 0
10 26 0
26 27 0
9 10 0
27 41 0
41 42 0
42 43 0
42 47 0
3 18 0
18 22 0
35 50 0
3 4 0
4 49 0
9 25 0
25 26 0
26 40 0
8 9 0
9 48 0
3 17 0
22 57 0
22 34 0
4 6 0
25 39 0
8 24 0
24 25 0
8 52 0
8 45 0
48 51 0
48 54 0
17 33 0
5 6 0
5 17 0
6 38 0
38 51 0
24 30 0
23 24 0
7 52 0
45 59 0
15 45 0
32 33 0
5 16 0
15 16 0
16 38 0
13 15 0
15 53 0
32 46 0
13 31 0
31 32 0
14 32 0
14 37 0
16 37 0
13 55 0
2 31 0
31 44 0
14 56 0
37 58 0
