p cnf 152 76
1 9 0
1 52 0
1 8 0
9 50 0
9 21 0
9 10 0
8 46 0
7 8 0
8 32 0
49 50 0
20 21 0
44 46 0
7 18 0
7 43 0
43 44 0
6 7 0
19 20 0
19 32 0
32 56 0
44 45 0
45 49 0
20 61 0
20 62 0
26 44 0
6 17 0
17 18 0
11 18 0
11 19 0
18 51 0
25 43 0
6 40 0
40 43 0
5 6 0
19 38 0
17 41 0
41 51 0
5 12 0
12 17 0
11 53 0
11 54 0
37 38 0
37 51 0
40 42 0
24 40 0
4 5 0
38 39 0
38 47 0
36 37 0
36 41 0
12 35 0
4 16 0
12 16 0
37 48 0
31 42 0
42 63 0
3 4 0
4 30 0
30 31 0
16 29 0
3 15 0
15 16 0
3 33 0
31 33 0
23 31 0
2 3 0
30 60 0
29 57 0
28 29 0
15 34 0
14 15 0
28 59 0
27 28 0
28 64 0
14 58 0
13 14 0
22 55 0
