p cnf 156 78
1 66 0
1 58 0
2 66 0
41 58 0
26 41 0
26 58 0
2 3 0
2 13 0
2 22 0
22 26 0
33 41 0
36 41 0
29 41 0
3 25 0
22 25 0
3 4 0
3 14 0
22 68 0
36 68 0
33 34 0
36 50 0
36 38 0
29 44 0
29 43 0
29 60 0
29 37 0
25 27 0
20 25 0
34 65 0
28 50 0
20 42 0
38 42 0
19 38 0
20 64 0
38 64 0
55 60 0
5 37 0
20 21 0
15 28 0
15 65 0
28 53 0
24 28 0
40 42 0
17 19 0
11 19 0
5 23 0
23 55 0
5 57 0
5 6 0
15 59 0
23 59 0
15 32 0
31 32 0
31 53 0
40 63 0
40 47 0
11 67 0
11 12 0
6 9 0
9 23 0
16 57 0
6 51 0
6 8 0
32 48 0
7 63 0
9 61 0
9 54 0
16 30 0
16 39 0
16 56 0
45 48 0
35 61 0
52 54 0
45 49 0
45 46 0
18 35 0
49 62 0
10 62 0
