p cnf 142 71
1 2 0
1 8 0
2 9 0
8 9 0
2 3 0
2 51 0
7 8 0
8 32 0
3 10 0
9 10 0
9 23 0
3 14 0
3 38 0
3 40 0
29 51 0
32 53 0
21 32 0
10 37 0
10 15 0
15 23 0
21 22 0
22 23 0
23 31 0
38 41 0
40 41 0
38 42 0
37 48 0
38 48 0
21 43 0
20 21 0
11 37 0
11 42 0
15 36 0
36 37 0
15 16 0
16 31 0
22 52 0
4 41 0
4 42 0
39 41 0
5 42 0
5 12 0
11 12 0
11 24 0
24 36 0
16 35 0
35 36 0
16 17 0
4 45 0
5 45 0
4 30 0
5 44 0
5 6 0
12 25 0
24 25 0
12 49 0
24 50 0
33 35 0
33 50 0
34 35 0
45 46 0
6 13 0
13 49 0
13 18 0
18 25 0
25 28 0
28 33 0
26 33 0
13 47 0
27 28 0
19 28 0
