p cnf 250 125
1 56 0
1 12 0
1 88 0
45 56 0
53 56 0
56 70 0
5 12 0
11 12 0
11 53 0
12 29 0
44 45 0
45 46 0
45 55 0
53 105 0
53 65 0
36 70 0
13 70 0
70 72 0
5 90 0
5 87 0
13 87 0
10 11 0
29 57 0
10 28 0
28 29 0
29 30 0
37 44 0
44 64 0
55 64 0
46 76 0
46 94 0
37 43 0
43 65 0
65 69 0
35 36 0
36 60 0
13 102 0
13 14 0
72 100 0
47 72 0
47 76 0
86 87 0
78 87 0
10 81 0
3 10 0
30 62 0
30 31 0
22 37 0
76 106 0
42 43 0
42 83 0
69 83 0
69 75 0
75 81 0
24 69 0
2 35 0
35 48 0
47 48 0
17 60 0
59 60 0
54 60 0
14 101 0
14 15 0
47 103 0
74 86 0
77 78 0
3 9 0
9 24 0
3 4 0
31 97 0
31 32 0
32 77 0
42 82 0
42 71 0
75 104 0
24 68 0
23 24 0
2 49 0
49 59 0
2 89 0
48 95 0
15 16 0
16 17 0
59 93 0
15 33 0
32 33 0
15 99 0
74 84 0
9 25 0
8 9 0
32 63 0
23 41 0
41 82 0
71 98 0
21 71 0
68 73 0
52 68 0
19 23 0
23 40 0
49 50 0
49 58 0
16 91 0
33 34 0
33 80 0
8 27 0
8 79 0
73 79 0
7 8 0
20 41 0
51 52 0
51 73 0
18 19 0
40 92 0
18 39 0
39 40 0
67 79 0
7 26 0
6 7 0
7 66 0
39 66 0
66 67 0
18 85 0
38 39 0
67 96 0
61 66 0
