p cnf 256 128
1 2 0
2 20 0
2 7 0
20 67 0
20 21 0
6 20 0
7 81 0
5 7 0
7 8 0
8 67 0
47 67 0
21 32 0
32 67 0
8 66 0
66 81 0
19 81 0
8 9 0
9 47 0
47 78 0
47 94 0
32 33 0
19 65 0
65 66 0
9 46 0
46 66 0
18 19 0
16 19 0
9 10 0
10 78 0
78 89 0
33 48 0
48 94 0
33 49 0
33 34 0
45 46 0
45 65 0
16 17 0
3 16 0
15 16 0
10 11 0
79 89 0
48 61 0
49 50 0
34 68 0
49 68 0
22 49 0
34 35 0
34 39 0
39 61 0
41 45 0
45 69 0
4 17 0
11 77 0
11 90 0
79 90 0
11 92 0
11 93 0
92 93 0
58 79 0
61 87 0
79 87 0
50 51 0
50 52 0
28 52 0
28 68 0
28 84 0
35 84 0
35 59 0
35 36 0
39 40 0
40 59 0
42 69 0
69 100 0
69 70 0
70 77 0
56 77 0
12 56 0
12 92 0
25 93 0
27 40 0
27 58 0
58 91 0
58 88 0
87 102 0
51 82 0
51 85 0
23 51 0
52 74 0
74 82 0
60 74 0
60 84 0
59 64 0
43 70 0
54 70 0
54 55 0
55 56 0
12 57 0
25 57 0
57 91 0
12 13 0
25 98 0
25 95 0
27 97 0
80 88 0
38 85 0
24 85 0
26 60 0
60 83 0
53 54 0
54 62 0
13 63 0
55 63 0
57 86 0
80 86 0
13 14 0
26 30 0
26 96 0
75 83 0
44 53 0
53 103 0
86 101 0
75 76 0
71 75 0
72 75 0
37 72 0
31 72 0
29 73 0
29 99 0
