p cnf 178 89
1 9 0
1 59 0
1 61 0
1 55 0
9 10 0
9 45 0
45 55 0
9 26 0
38 55 0
38 56 0
55 56 0
10 11 0
5 10 0
10 19 0
19 26 0
45 62 0
8 45 0
14 26 0
26 31 0
38 52 0
8 54 0
54 56 0
11 12 0
11 21 0
19 21 0
5 6 0
6 11 0
2 5 0
14 63 0
62 63 0
8 48 0
14 48 0
14 64 0
23 31 0
15 31 0
15 64 0
4 52 0
52 53 0
21 27 0
21 22 0
22 23 0
3 6 0
6 7 0
48 65 0
48 70 0
23 29 0
23 24 0
15 49 0
15 43 0
43 65 0
15 37 0
37 43 0
37 49 0
13 53 0
22 28 0
16 49 0
43 68 0
37 67 0
67 68 0
13 39 0
66 68 0
40 66 0
40 67 0
39 44 0
36 39 0
32 39 0
25 36 0
25 40 0
34 40 0
35 40 0
30 44 0
36 47 0
25 33 0
33 60 0
34 60 0
30 57 0
30 51 0
41 47 0
41 51 0
41 46 0
46 47 0
33 58 0
46 58 0
50 51 0
41 42 0
50 71 0
42 72 0
17 18 0
20 69 0
