p cnf 166 83
1 54 0
54 56 0
54 55 0
8 54 0
2 56 0
20 56 0
55 58 0
20 42 0
20 53 0
13 20 0
13 53 0
17 58 0
41 42 0
36 53 0
52 53 0
3 13 0
12 13 0
13 47 0
17 34 0
17 21 0
7 17 0
41 51 0
9 21 0
9 36 0
27 36 0
12 61 0
36 61 0
40 52 0
11 12 0
11 27 0
12 48 0
47 48 0
19 47 0
47 60 0
9 37 0
34 37 0
34 62 0
9 65 0
26 27 0
26 37 0
27 35 0
39 40 0
11 49 0
48 49 0
10 11 0
10 35 0
19 44 0
44 48 0
18 19 0
19 64 0
60 68 0
46 60 0
37 43 0
25 26 0
26 57 0
35 57 0
23 35 0
49 50 0
28 44 0
28 49 0
18 33 0
33 44 0
5 18 0
16 18 0
4 5 0
4 46 0
4 64 0
46 59 0
46 63 0
25 66 0
24 25 0
38 57 0
22 57 0
28 45 0
28 29 0
29 33 0
15 33 0
5 6 0
5 31 0
4 30 0
59 67 0
14 29 0
29 32 0
