p cnf 212 106
1 18 0
1 28 0
1 72 0
18 19 0
3 18 0
6 18 0
28 41 0
27 28 0
28 71 0
19 20 0
13 19 0
19 48 0
3 17 0
2 3 0
2 71 0
6 73 0
6 11 0
41 82 0
40 41 0
9 13 0
9 27 0
26 27 0
27 63 0
40 63 0
20 83 0
20 21 0
20 79 0
13 14 0
14 21 0
14 26 0
11 42 0
42 48 0
37 48 0
48 61 0
17 65 0
11 12 0
12 17 0
17 55 0
2 29 0
24 40 0
9 74 0
26 36 0
8 26 0
23 63 0
21 35 0
35 37 0
21 22 0
14 75 0
42 49 0
42 43 0
43 61 0
37 38 0
38 61 0
37 47 0
46 61 0
12 53 0
49 53 0
12 80 0
29 57 0
55 57 0
55 84 0
24 25 0
25 29 0
29 68 0
24 89 0
10 24 0
36 78 0
36 70 0
23 77 0
4 35 0
22 85 0
49 50 0
43 62 0
49 62 0
43 44 0
44 59 0
46 59 0
46 88 0
31 53 0
57 86 0
25 58 0
50 51 0
51 62 0
32 50 0
44 60 0
60 62 0
44 45 0
59 67 0
39 59 0
33 51 0
51 52 0
52 69 0
60 69 0
60 64 0
33 34 0
34 52 0
54 69 0
64 87 0
56 64 0
5 34 0
16 34 0
16 66 0
15 16 0
15 76 0
15 30 0
7 81 0
