p cnf 248 124
1 89 0
1 34 0
1 19 0
1 88 0
33 34 0
34 55 0
18 19 0
19 20 0
8 19 0
5 33 0
33 54 0
32 33 0
17 18 0
17 55 0
54 59 0
55 59 0
18 101 0
20 35 0
20 92 0
7 8 0
4 5 0
5 77 0
54 95 0
27 32 0
32 43 0
43 59 0
3 4 0
3 32 0
17 23 0
16 17 0
56 59 0
35 49 0
35 36 0
35 61 0
6 7 0
6 77 0
7 96 0
4 99 0
4 87 0
77 78 0
26 43 0
42 43 0
2 3 0
23 75 0
23 93 0
16 57 0
56 57 0
45 56 0
49 94 0
39 49 0
36 68 0
36 40 0
39 40 0
61 100 0
61 63 0
63 75 0
78 80 0
25 42 0
41 42 0
42 44 0
75 104 0
46 57 0
68 73 0
68 74 0
68 69 0
69 73 0
69 74 0
40 81 0
10 40 0
63 66 0
63 64 0
64 66 0
64 73 0
79 80 0
67 74 0
67 81 0
30 69 0
12 81 0
9 10 0
10 91 0
10 11 0
11 12 0
66 82 0
66 85 0
58 64 0
12 70 0
67 70 0
30 37 0
15 30 0
12 31 0
9 90 0
9 51 0
11 97 0
82 103 0
15 29 0
29 58 0
47 58 0
70 76 0
13 70 0
13 84 0
37 84 0
37 60 0
37 38 0
22 31 0
31 48 0
50 51 0
48 52 0
51 52 0
29 65 0
28 29 0
76 83 0
76 86 0
13 14 0
13 24 0
60 98 0
60 62 0
62 65 0
22 53 0
53 86 0
65 102 0
24 71 0
71 83 0
72 86 0
21 24 0
