p cnf 132 66
1 27 0
1 21 0
1 48 0
27 41 0
27 38 0
11 21 0
20 21 0
21 22 0
33 41 0
38 40 0
40 41 0
20 26 0
26 38 0
10 11 0
10 20 0
11 14 0
18 20 0
22 34 0
33 34 0
22 23 0
14 15 0
15 22 0
29 33 0
33 39 0
39 40 0
26 42 0
26 32 0
32 39 0
9 10 0
10 13 0
13 14 0
4 14 0
23 35 0
34 35 0
29 30 0
30 34 0
23 24 0
15 16 0
16 23 0
4 5 0
5 15 0
29 43 0
19 42 0
31 32 0
3 4 0
3 13 0
12 13 0
4 28 0
25 30 0
25 35 0
24 37 0
35 37 0
16 17 0
17 24 0
6 16 0
31 44 0
43 44 0
43 46 0
2 3 0
3 45 0
25 36 0
36 37 0
7 17 0
44 47 0
46 47 0
8 36 0
