p cnf 150 75
1 2 0
1 4 0
1 13 0
2 20 0
2 38 0
3 4 0
4 12 0
12 38 0
13 26 0
13 19 0
19 20 0
13 18 0
20 21 0
20 48 0
21 33 0
33 38 0
8 38 0
3 41 0
18 41 0
3 27 0
12 37 0
27 37 0
18 35 0
26 35 0
19 54 0
17 18 0
21 43 0
21 28 0
28 48 0
25 33 0
33 44 0
8 9 0
9 25 0
7 8 0
8 47 0
41 57 0
27 56 0
36 37 0
6 7 0
6 37 0
15 35 0
17 58 0
16 17 0
28 42 0
42 43 0
43 51 0
44 51 0
22 43 0
25 55 0
44 50 0
22 39 0
39 44 0
9 49 0
9 32 0
7 60 0
5 6 0
6 46 0
15 53 0
22 29 0
29 42 0
22 23 0
45 49 0
45 50 0
10 39 0
23 40 0
39 40 0
49 61 0
29 52 0
23 30 0
29 30 0
23 24 0
34 40 0
11 40 0
30 31 0
14 59 0
