p cnf 184 92
1 17 0
1 69 0
1 40 0
17 18 0
16 17 0
40 41 0
40 57 0
40 83 0
18 73 0
18 19 0
16 58 0
2 19 0
2 41 0
10 41 0
41 42 0
9 10 0
9 57 0
55 57 0
19 20 0
31 58 0
24 58 0
2 68 0
10 11 0
10 14 0
9 56 0
55 56 0
8 55 0
31 75 0
31 37 0
30 31 0
12 24 0
24 39 0
7 24 0
14 77 0
14 36 0
13 14 0
13 56 0
8 72 0
8 64 0
7 50 0
30 50 0
30 44 0
12 71 0
38 39 0
39 80 0
7 81 0
6 7 0
13 35 0
35 36 0
64 70 0
64 79 0
34 50 0
50 60 0
6 28 0
28 38 0
5 6 0
6 62 0
35 43 0
35 84 0
27 34 0
27 62 0
34 52 0
51 60 0
60 85 0
28 65 0
4 5 0
5 29 0
27 29 0
27 67 0
27 59 0
51 59 0
49 52 0
25 51 0
51 82 0
53 65 0
61 65 0
54 65 0
3 4 0
4 15 0
29 33 0
47 67 0
22 59 0
54 66 0
15 23 0
33 46 0
32 33 0
47 48 0
22 74 0
22 63 0
26 63 0
21 76 0
45 78 0
